100
-14 -32 80 83 23 -28 72 -68 80 -58 59 -11 84 96 -29 -72 -87 3 28 -97 93 26 -92 -97 7 65 -51 -28 6 36 -84 -96 -12 4 -26 -87 87 100 -74 33 -79 33 -35 -20 -74 -4 -50 63 38 74 95 -79 15 60 -70 -43 32 90 68 79 -17 31 -13 52 -75 13 -54 -3 23 51 17 68 44 -80 -32 -37 54 54 55 89 24 29 -42 -89 70 37 -100 -77 -11 11 -41 -15 76 80 -57 100 -61 22 55 3
14 32 -80 -83 -23 28 -72 68 -80 58 -59 11 -84 -96 29 72 87 -3 -28 97 -93 -26 92 97 -7 -65 51 28 -6 -36 84 96 12 -4 26 87 -87 -100 74 -33 79 -33 35 20 74 4 50 -63 -38 -74 -95 79 -15 -60 70 43 -32 -90 -68 -79 17 -31 13 -52 75 -13 54 3 -23 -51 -17 -68 -44 80 32 37 -54 -54 -55 -89 -24 -29 42 89 -70 -37 100 77 11 -11 41 15 -76 -80 57 -100 61 -22 -55 -3
